8
0, 303, 108, 215, 517, 293, 458, 786
303, 0, 363, 469, 750, 256, 644, 1002
108, 363, 0, 113, 413, 266, 350, 681
215, 469, 113, 0, 301, 325, 254, 570
517, 750, 413, 301, 0, 546, 151, 270
293, 256, 266, 325, 546, 0, 417, 776
458, 644, 350, 254, 151, 417, 0, 360
786, 1002, 681, 570, 270, 776, 360, 0
